C O                                     
   1.00000000000000     
    12.0000000000000000    0.0000000000000000    0.0000000000000000
     0.0000000000000000   12.1000003814999992    0.0000000000000000
     0.0000000000000000    0.0000000000000000   12.1999998092999995
   C    O 
     1     1
Selective dynamics
Direct
  0.4693479735007884  0.6152435204037161  0.5049948129425914   T   T   T
  0.5608720184992109  0.6273065095962878  0.5273755309134476   T   T   T
 
  0.00000000E+00  0.00000000E+00  0.00000000E+00
  0.00000000E+00  0.00000000E+00  0.00000000E+00
